Version identifier: 12.10.0.0 | 2019-11-26 | 843d4de
CPXPARAM_WorkMem                                 28672
Tried aggregator 2 times.
Aggregator did 20 substitutions.
Reduced MIP has 73 rows, 90 columns, and 333 nonzeros.
Reduced MIP has 90 binaries, 0 generals, 0 SOSs, and 0 indicators.
Presolve time = 0,00 sec. (0,31 ticks)
Found incumbent of value 60,000000 after 0,00 sec. (0,60 ticks)
Probing time = 0,00 sec. (0,10 ticks)
Tried aggregator 1 time.
Detecting symmetries...
MIP Presolve eliminated 6 rows and 0 columns.
MIP Presolve added 12 rows and 0 columns.
Reduced MIP has 79 rows, 90 columns, and 339 nonzeros.
Reduced MIP has 90 binaries, 0 generals, 0 SOSs, and 0 indicators.
Presolve time = 0,00 sec. (0,38 ticks)
Probing time = 0,00 sec. (0,10 ticks)
Clique table members: 223.
MIP emphasis: balance optimality and feasibility.
MIP search method: dynamic search.
Parallel mode: deterministic, using up to 16 threads.
Root relaxation solution time = 0,00 sec. (0,15 ticks)

        Nodes                                         Cuts/
   Node  Left     Objective  IInf  Best Integer    Best Bound    ItCnt     Gap

*     0+    0                           60,0000        0,0000           100,00%
*     0+    0                           48,0000        0,0000           100,00%
*     0+    0                           46,0000        0,0000           100,00%
      0     0       20,0000    67       46,0000       20,0000       23   56,52%
*     0+    0                           44,0000       20,0000            54,55%
      0     0       20,0000    67       44,0000      Cuts: 62       51   54,55%
*     0+    0                           43,0000       20,0000            53,49%
      0     0       20,0000    67       43,0000     Cuts: 114       98   53,49%
*     0+    0                           42,0000       20,0000            52,38%
      0     2       23,1000    45       42,0000       23,6762      117   43,63%
Elapsed time = 0,04 sec. (9,11 ticks, tree = 0,02 MB, solutions = 6)

Clique cuts applied:  23
Cover cuts applied:  98
Mixed integer rounding cuts applied:  3

Root node processing (before b&c):
  Real time             =    0,03 sec. (9,07 ticks)
Parallel b&c, 16 threads:
  Real time             =    0,03 sec. (10,29 ticks)
  Sync time (average)   =    0,02 sec.
  Wait time (average)   =    0,00 sec.
                          ------------
Total (root+branch&cut) =    0,06 sec. (19,36 ticks)
